% File represents an instance of a Composite Structure problem to be solved by a CP framework
% Created on 2025-03-26 10:41:52.853
T = 50;
n = 36;
m = 60;
edges = [(1, 2),
(7, 8),
(13, 14),
(19, 20),
(25, 26),
(31, 32),
(2, 3),
(8, 9),
(14, 15),
(20, 21),
(27, 26),
(32, 33),
(3, 4),
(9, 10),
(15, 16),
(21, 22),
(28, 27),
(34, 33),
(4, 5),
(10, 11),
(17, 16),
(23, 22),
(29, 28),
(35, 34),
(5, 6),
(12, 11),
(18, 17),
(24, 23),
(30, 29),
(36, 35),
(1, 7),
(7, 13),
(13, 19),
(19, 25),
(31, 25),
(2, 8),
(8, 14),
(14, 20),
(20, 26),
(32, 26),
(3, 9),
(9, 15),
(15, 21),
(27, 21),
(27, 33),
(4, 10),
(10, 16),
(16, 22),
(28, 22),
(34, 28),
(5, 11),
(17, 11),
(17, 23),
(29, 23),
(35, 29),
(12, 6),
(18, 12),
(18, 24),
(30, 24),
(36, 30)];
counts = [|8, 10, 8, 24,
|8, 8, 8, 22,
|8, 6, 8, 18,
|8, 6, 8, 16,
|6, 6, 6, 14,
|6, 4, 6, 14,
|8, 8, 8, 22,
|8, 6, 8, 20,
|8, 4, 8, 16,
|8, 4, 8, 14,
|6, 4, 6, 12,
|6, 4, 6, 16,
|8, 6, 8, 20,
|8, 6, 8, 16,
|8, 2, 8, 16,
|8, 2, 8, 14,
|8, 4, 8, 14,
|8, 4, 8, 18,
|8, 4, 8, 20,
|8, 4, 8, 14,
|8, 2, 8, 12,
|8, 2, 8, 10,
|8, 2, 8, 12,
|8, 2, 8, 18,
|8, 2, 8, 18,
|8, 2, 8, 12,
|8, 2, 8, 14,
|8, 4, 8, 14,
|8, 6, 8, 14,
|8, 6, 8, 18,
|8, 4, 8, 18,
|8, 2, 8, 18,
|8, 2, 8, 12,
|8, 4, 8, 16,
|8, 6, 8, 20,
|8, 6, 8, 22|];
